Traveling Salesman Problem/TSP_generados/Aleatorio1621103608_16.tsp
NAME: Aleatorio1621103608_16.tsp
COMMENT: Randomly generated scenario
TYPE: TSP
DIMENSION: 16
EDGE_WEIGHT_TYPE: ATT
NODE_COORD_SECTION
1 7.72 32.15
2 4.61 6.61
3 14.91 13.7
4 15.47 4.38
5 39.66 28.87
6 43.7 23.45
7 12.43 11.62
8 25.68 45.28
9 4.3 0.68
10 7.51 14.44
11 17.09 45.51
12 20.13 11.16
13 8.63 5.26
14 14.46 38.98
15 4.61 14.35
16 5.43 11.38
