Traveling Salesman Problem/TSP_generados/Aleatorio1621103608_16.opt.tour
NAME: Aleatorio1621103608_16.opt.tour
COMMENT: Optimal solution for Aleatorio1621103608_16 (144.69309289422398)
TYPE: TOUR
DIMENSION: 16
TOUR_SECTION
1 10 15 16 2 9 13 4 7 3 12 6 5 8 11 14
-1
EOF
